40
247
5
4
97
71
68
58
0 4
0 6
0 15
0 18
0 19
0 23
0 28
0 30
0 31
0 33
0 34
0 39
1 4
1 5
1 6
1 10
1 18
1 21
1 22
1 27
1 28
1 39
2 6
2 12
2 14
2 17
2 19
2 21
2 22
2 23
2 24
2 25
2 26
2 29
2 34
2 35
2 36
3 4
3 8
3 9
3 10
3 11
3 18
3 21
3 25
3 29
3 31
3 36
3 37
3 38
4 5
4 7
4 12
4 13
4 14
4 20
4 26
4 30
4 31
4 33
4 34
4 37
4 38
5 7
5 8
5 10
5 11
5 17
5 18
5 20
5 22
5 26
5 33
5 34
5 37
5 39
6 9
6 11
6 12
6 14
6 19
6 22
6 23
6 28
6 31
6 33
6 34
7 10
7 11
7 13
7 15
7 25
7 29
7 33
7 36
7 37
7 39
8 11
8 16
8 17
8 19
8 30
8 34
8 37
8 38
9 16
9 19
9 23
9 24
9 28
9 30
9 34
9 37
10 13
10 20
10 21
10 25
10 28
10 30
10 31
10 32
10 34
11 13
11 15
11 16
11 27
11 28
11 30
11 31
11 37
12 15
12 18
12 23
12 24
12 32
13 14
13 19
13 23
13 31
13 35
13 37
13 38
14 15
14 20
14 21
14 22
14 25
14 31
14 32
14 33
14 34
14 39
15 21
15 23
15 24
15 25
15 26
15 27
15 32
15 34
15 35
15 36
16 23
16 24
16 26
16 27
16 32
16 34
16 36
16 39
17 21
17 27
17 36
18 22
18 27
18 37
19 22
19 23
19 26
19 27
19 34
19 37
19 38
20 21
20 22
20 24
20 28
20 30
20 31
20 33
20 35
20 36
20 39
21 22
21 25
21 26
21 27
21 28
21 32
21 37
21 38
22 31
22 33
22 34
23 27
23 30
23 34
24 25
24 27
24 32
24 36
24 37
24 38
24 39
25 29
25 35
26 27
26 29
26 31
26 38
26 39
27 29
27 31
27 32
27 34
28 29
28 33
28 36
28 38
29 32
29 37
30 31
30 35
30 36
30 38
31 34
31 37
31 38
31 39
33 38
34 35
34 37
34 38
35 36
36 37
37 38
38 39
4 16 39 25 29 20 21 26
6 22 23 10 12 9 3 5
28 34 30 2 19 7 27 36
38 17 11 32 0 37 31 8
14 13 15 24 18 1 33 35
